p wcnf 153 76 77 
1 -99 -59 0 
1 131 -81 0 
1 111 -133 0 
1 -41 17 0 
1 112 146 0 
1 -43 101 0 
1 90 47 0 
1 -106 24 0 
1 -136 -6 0 
1 64 9 0 
1 -42 -16 0 
1 54 4 0 
1 134 39 0 
1 41 -115 0 
1 -55 -97 0 
1 94 111 0 
1 32 16 0 
1 -84 123 0 
1 6 43 0 
1 -129 49 0 
1 -35 -16 0 
1 -94 -83 0 
1 152 -9 0 
1 -7 -140 0 
1 35 -31 0 
1 -7 151 0 
1 119 -38 0 
1 -96 113 0 
1 -44 8 0 
1 47 151 0 
1 58 114 0 
1 -126 -24 0 
1 115 -124 0 
1 -18 137 0 
1 59 -26 0 
1 41 135 0 
1 76 -146 0 
1 47 -55 0 
1 -117 -71 0 
1 -73 -23 0 
1 -139 69 0 
1 -37 -33 0 
1 -138 10 0 
1 109 152 0 
1 46 -47 0 
1 -115 35 0 
1 61 27 0 
1 101 118 0 
1 -103 -66 0 
1 -72 136 0 
1 -74 -114 0 
1 70 -7 0 
1 58 -3 0 
1 -72 -35 0 
1 5 -138 0 
1 -139 86 0 
1 -62 -48 0 
1 133 150 0 
1 -121 -35 0 
1 -112 135 0 
1 -149 -51 0 
1 -56 92 0 
1 59 -5 0 
1 -20 -49 0 
1 135 52 0 
1 136 48 0 
1 -149 -12 0 
1 8 68 0 
1 -151 -38 0 
1 -30 -45 0 
1 -105 113 0 
1 104 54 0 
1 78 -72 0 
1 52 68 0 
1 -98 -119 0 
1 97 -135 0 
